2	3	4	6	8	8	8	8	8	8	9	9	10	11	9	6	5	5	5	6	6	6	5	5	8	7	6	6	6	5	5	6	7	7	9	10	9	8	7	7	7	8	8	9	9	11	10	8	8	9	10	10	11	11	11	12	13	14	13	12	11	10	11	11	10	9	9	8	9	10	9	8	8	7	6	5	5	5	5	5	4	4	2	1	1	02	3	4	6	8	8	8	8	8	8	9	9	10	11	9	6	5	5	5	6	6	6	5	5	8	7	6	6	6	5	5	6	7	8	9	10	9	8	7	7	7	8	8	9	9	10	10	9	8	9	10	10	11	11	11	12	13	14	13	12	11	11	11	11	10	9	9	8	9	10	9	8	8	7	6	5	5	5	5	5	4	4	2	1	1	02	3	4	6	8	8	8	8	8	8	9	9	10	11	9	6	5	5	5	6	6	6	5	5	8	7	6	6	6	5	5	6	7	8	9	10	9	8	7	7	7	8	8	9	9	10	10	9	8	9	10	10	11	11	11	12	13	14	13	12	11	11	11	11	10	9	9	8	9	10	9	8	8	7	6	5	5	5	5	5	4	4	2	1	1	02	3	4	6	8	8	8	8	8	8	9	9	10	11	9	6	5	5	5	6	6	6	5	5	8	7	6	6	6	5	5	6	7	8	9	10	9	8	7	7	7	8	8	9	9	10	10	9	8	9	10	10	11	11	11	12	13	14	13	12	11	11	11	11	10	9	9	8	9	10	9	8	8	7	6	5	5	5	5	5	4	4	2	1	1	02	3	4	6	8	8	8	8	8	8	9	9	10	11	9	6	5	5	5	6	6	6	5	5	8	7	6	6	6	5	5	6	7	8	9	10	9	8	7	7	7	8	8	9	9	10	10	9	8	9	10	10	11	11	11	12	13	14	13	12	11	11	11	11	10	9	9	8	9	10	9	8	8	7	6	5	5	5	5	5	4	4	2	1	1	02	3	4	6	8	8	8	8	8	8	9	9	10	11	9	6	5	5	5	6	6	6	5	5	8	7	6	6	6	5	5	6	7	8	9	10	9	8	7	7	7	8	8	9	9	10	10	9	8	9	10	10	11	11	11	12	13	14	13	12	11	11	11	11	10	9	9	8	9	10	9	8	8	7	6	5	5	5	5	5	4	4	2	1	1	02	3	4	6	8	8	8	8	8	8	9	9	10	11	9	6	5	5	5	6	6	6	5	5	8	7	6	6	6	5	5	6	7	8	9	10	9	8	7	7	7	8	8	9	9	10	10	9	8	9	10	10	11	11	11	12	13	14	13	12	11	11	11	11	10	9	9	8	9	10	9	8	8	7	6	5	5	5	5	5	4	4	2	1	1	02	3	4	6	8	8	8	8	8	8	9	9	10	11	9	6	5	5	5	6	6	6	5	5	8	7	6	6	6	5	5	6	7	8	9	10	9	8	7	7	7	8	8	9	9	10	10	9	8	9	10	10	11	11	11	12	13	14	13	12	11	11	11	11	10	9	9	8	9	10	9	8	8	7	6	5	5	5	5	5	4	4	2	1	1	0